c File: data_files/evolved_graphs/g0171.col
c
c Auto generated graph
c
p edge 100 1406
e 1 3
e 1 10
e 1 11
e 1 12
e 1 13
e 1 15
e 1 16
e 1 17
e 1 18
e 1 19
e 1 20
e 1 22
e 1 27
e 1 47
e 1 49
e 1 50
e 2 3
e 2 4
e 2 10
e 2 11
e 2 12
e 2 13
e 2 14
e 2 15
e 2 16
e 2 17
e 2 18
e 2 19
e 2 20
e 2 36
e 2 37
e 2 50
e 2 86
e 2 92
e 3 5
e 3 13
e 3 14
e 3 15
e 3 16
e 3 17
e 3 18
e 3 20
e 3 22
e 3 24
e 3 25
e 3 35
e 3 36
e 3 38
e 3 39
e 3 41
e 3 47
e 3 49
e 3 51
e 3 52
e 3 73
e 4 11
e 4 12
e 4 13
e 4 15
e 4 16
e 4 17
e 4 18
e 4 20
e 4 24
e 4 26
e 4 36
e 4 37
e 4 43
e 4 44
e 4 47
e 4 48
e 4 49
e 4 50
e 4 51
e 4 52
e 4 54
e 4 91
e 4 95
e 5 7
e 5 11
e 5 12
e 5 13
e 5 14
e 5 15
e 5 17
e 5 18
e 5 19
e 5 20
e 5 26
e 5 27
e 5 28
e 5 34
e 5 36
e 5 42
e 5 49
e 5 50
e 5 52
e 5 78
e 5 79
e 5 81
e 6 14
e 6 21
e 6 22
e 6 24
e 6 28
e 6 30
e 6 34
e 6 35
e 6 39
e 6 47
e 6 48
e 6 49
e 6 52
e 6 79
e 6 92
e 6 99
e 7 14
e 7 17
e 7 18
e 7 20
e 7 23
e 7 24
e 7 27
e 7 32
e 7 34
e 7 37
e 7 38
e 7 41
e 7 44
e 7 45
e 7 47
e 7 61
e 7 63
e 8 9
e 8 14
e 8 20
e 8 21
e 8 25
e 8 27
e 8 30
e 8 33
e 8 37
e 8 40
e 8 42
e 8 43
e 8 47
e 8 48
e 8 51
e 8 52
e 8 71
e 8 80
e 9 14
e 9 20
e 9 36
e 9 37
e 9 38
e 9 39
e 9 43
e 9 48
e 9 49
e 9 51
e 9 62
e 9 74
e 9 79
e 9 83
e 9 97
e 10 14
e 10 20
e 10 23
e 10 29
e 10 36
e 10 38
e 10 40
e 10 41
e 10 42
e 10 43
e 10 46
e 10 48
e 10 51
e 10 52
e 10 69
e 10 72
e 10 74
e 10 82
e 11 14
e 11 29
e 11 30
e 11 33
e 11 35
e 11 36
e 11 37
e 11 38
e 11 39
e 11 41
e 11 43
e 11 46
e 11 47
e 11 48
e 11 51
e 11 60
e 11 61
e 12 14
e 12 15
e 12 22
e 12 25
e 12 28
e 12 31
e 12 33
e 12 35
e 12 38
e 12 45
e 12 46
e 12 63
e 12 65
e 12 92
e 13 14
e 13 24
e 13 28
e 13 39
e 13 42
e 13 43
e 13 48
e 13 50
e 13 51
e 13 52
e 13 53
e 13 69
e 13 91
e 13 92
e 14 29
e 14 32
e 14 35
e 14 40
e 14 41
e 14 44
e 14 46
e 14 47
e 14 48
e 14 53
e 14 67
e 14 73
e 15 23
e 15 26
e 15 35
e 15 36
e 15 38
e 15 41
e 15 44
e 15 48
e 15 49
e 15 50
e 15 53
e 15 63
e 15 69
e 16 24
e 16 29
e 16 38
e 16 42
e 16 46
e 16 49
e 16 52
e 16 53
e 16 61
e 16 66
e 16 89
e 16 92
e 16 94
e 16 97
e 17 18
e 17 23
e 17 32
e 17 33
e 17 35
e 17 43
e 17 44
e 17 47
e 17 53
e 17 60
e 17 64
e 18 27
e 18 37
e 18 38
e 18 41
e 18 42
e 18 45
e 18 47
e 18 52
e 18 64
e 19 29
e 19 31
e 19 33
e 19 36
e 19 37
e 19 38
e 19 40
e 19 41
e 19 44
e 19 45
e 19 46
e 19 48
e 19 52
e 19 66
e 19 68
e 20 24
e 20 38
e 20 46
e 20 50
e 21 25
e 21 26
e 21 27
e 21 28
e 21 36
e 21 38
e 21 39
e 21 42
e 21 46
e 21 51
e 21 58
e 21 60
e 21 66
e 21 68
e 21 69
e 21 70
e 21 71
e 21 73
e 21 76
e 21 77
e 21 83
e 21 88
e 21 93
e 21 95
e 22 25
e 22 26
e 22 27
e 22 28
e 22 35
e 22 37
e 22 39
e 22 40
e 22 43
e 22 45
e 22 46
e 22 47
e 22 50
e 22 51
e 22 53
e 22 57
e 22 58
e 22 60
e 22 61
e 22 63
e 22 67
e 22 71
e 22 72
e 22 75
e 22 76
e 22 77
e 22 79
e 22 82
e 22 83
e 22 87
e 22 89
e 22 93
e 22 99
e 23 25
e 23 26
e 23 27
e 23 28
e 23 35
e 23 38
e 23 39
e 23 41
e 23 47
e 23 49
e 23 50
e 23 51
e 23 52
e 23 59
e 23 60
e 23 62
e 23 66
e 23 67
e 23 68
e 23 72
e 23 77
e 23 78
e 23 79
e 23 83
e 23 84
e 23 89
e 23 90
e 23 91
e 23 92
e 23 95
e 23 96
e 23 97
e 23 98
e 23 99
e 24 25
e 24 26
e 24 27
e 24 28
e 24 36
e 24 37
e 24 39
e 24 41
e 24 42
e 24 43
e 24 44
e 24 45
e 24 46
e 24 51
e 24 55
e 24 56
e 24 57
e 24 59
e 24 60
e 24 62
e 24 63
e 24 65
e 24 66
e 24 67
e 24 68
e 24 69
e 24 70
e 24 71
e 24 72
e 24 74
e 24 76
e 24 77
e 24 80
e 24 81
e 24 87
e 24 88
e 24 93
e 24 95
e 24 98
e 24 99
e 25 29
e 25 35
e 25 37
e 25 39
e 25 40
e 25 41
e 25 42
e 25 45
e 25 47
e 25 48
e 25 49
e 25 50
e 25 51
e 25 57
e 25 59
e 25 61
e 25 70
e 25 75
e 25 78
e 25 80
e 25 81
e 25 83
e 25 86
e 25 94
e 25 95
e 25 97
e 25 98
e 25 99
e 26 38
e 26 42
e 26 44
e 26 45
e 26 48
e 26 49
e 26 54
e 26 55
e 26 56
e 26 57
e 26 62
e 26 63
e 26 65
e 26 67
e 26 70
e 26 71
e 26 72
e 26 76
e 26 77
e 26 78
e 26 81
e 26 83
e 26 84
e 26 87
e 26 89
e 26 91
e 26 93
e 26 95
e 26 97
e 26 99
e 27 30
e 27 39
e 27 40
e 27 42
e 27 45
e 27 46
e 27 47
e 27 48
e 27 49
e 27 51
e 27 52
e 27 53
e 27 55
e 27 59
e 27 60
e 27 61
e 27 63
e 27 68
e 27 71
e 27 73
e 27 74
e 27 76
e 27 82
e 27 85
e 27 88
e 27 89
e 27 91
e 27 92
e 27 93
e 27 94
e 27 95
e 27 96
e 27 99
e 28 37
e 28 38
e 28 41
e 28 43
e 28 46
e 28 51
e 28 53
e 28 54
e 28 57
e 28 58
e 28 62
e 28 63
e 28 64
e 28 68
e 28 70
e 28 74
e 28 76
e 28 78
e 28 80
e 28 82
e 28 85
e 28 87
e 28 88
e 28 91
e 28 92
e 28 95
e 28 98
e 28 99
e 29 37
e 29 39
e 29 42
e 29 44
e 29 48
e 29 49
e 29 59
e 29 60
e 29 65
e 29 66
e 29 68
e 29 72
e 29 73
e 29 76
e 29 77
e 29 80
e 29 85
e 29 87
e 29 88
e 29 89
e 29 90
e 29 94
e 29 97
e 29 98
e 29 99
e 30 36
e 30 37
e 30 39
e 30 40
e 30 44
e 30 45
e 30 51
e 30 56
e 30 57
e 30 58
e 30 60
e 30 61
e 30 62
e 30 63
e 30 65
e 30 68
e 30 72
e 30 76
e 30 79
e 30 80
e 30 82
e 30 83
e 30 85
e 30 87
e 30 88
e 30 91
e 30 92
e 30 93
e 30 95
e 30 100
e 31 37
e 31 38
e 31 40
e 31 42
e 31 45
e 31 46
e 31 47
e 31 49
e 31 52
e 31 56
e 31 60
e 31 64
e 31 66
e 31 68
e 31 69
e 31 70
e 31 74
e 31 75
e 31 81
e 31 83
e 31 85
e 31 86
e 31 89
e 31 92
e 31 94
e 31 98
e 32 36
e 32 37
e 32 39
e 32 40
e 32 43
e 32 47
e 32 50
e 32 51
e 32 54
e 32 57
e 32 58
e 32 60
e 32 61
e 32 62
e 32 64
e 32 68
e 32 69
e 32 71
e 32 72
e 32 75
e 32 77
e 32 79
e 32 81
e 32 90
e 32 94
e 32 95
e 32 96
e 32 97
e 32 98
e 32 100
e 33 37
e 33 40
e 33 42
e 33 43
e 33 46
e 33 47
e 33 51
e 33 52
e 33 56
e 33 59
e 33 64
e 33 65
e 33 66
e 33 68
e 33 69
e 33 70
e 33 71
e 33 72
e 33 74
e 33 76
e 33 79
e 33 80
e 33 82
e 33 85
e 33 86
e 33 89
e 33 90
e 33 93
e 33 96
e 33 97
e 34 37
e 34 41
e 34 42
e 34 43
e 34 45
e 34 49
e 34 51
e 34 52
e 34 53
e 34 57
e 34 58
e 34 60
e 34 64
e 34 65
e 34 66
e 34 71
e 34 72
e 34 76
e 34 78
e 34 79
e 34 80
e 34 83
e 34 86
e 34 87
e 34 88
e 34 89
e 34 93
e 34 94
e 35 39
e 35 41
e 35 44
e 35 45
e 35 46
e 35 47
e 35 49
e 35 53
e 35 56
e 35 59
e 35 61
e 35 65
e 35 66
e 35 67
e 35 68
e 35 69
e 35 70
e 35 72
e 35 73
e 35 78
e 35 79
e 35 81
e 35 82
e 35 83
e 35 84
e 35 85
e 35 86
e 35 97
e 35 98
e 36 79
e 36 81
e 36 82
e 36 84
e 36 88
e 36 90
e 36 91
e 36 92
e 36 93
e 36 96
e 36 98
e 37 79
e 37 80
e 37 83
e 37 85
e 37 86
e 37 87
e 37 90
e 37 91
e 37 92
e 37 93
e 37 96
e 37 99
e 37 100
e 38 83
e 38 84
e 38 86
e 38 88
e 38 90
e 38 92
e 38 93
e 38 95
e 38 96
e 38 98
e 38 100
e 39 85
e 39 92
e 39 93
e 39 96
e 39 98
e 40 79
e 40 80
e 40 81
e 40 83
e 40 87
e 40 88
e 40 89
e 40 93
e 40 94
e 41 79
e 41 80
e 41 81
e 41 82
e 41 83
e 41 84
e 41 87
e 41 88
e 41 92
e 41 95
e 41 97
e 41 99
e 41 100
e 42 72
e 42 73
e 42 74
e 42 75
e 42 76
e 42 77
e 42 78
e 42 82
e 42 83
e 42 84
e 42 85
e 42 86
e 42 87
e 42 88
e 42 92
e 42 93
e 42 94
e 42 97
e 42 99
e 43 72
e 43 73
e 43 74
e 43 75
e 43 76
e 43 77
e 43 78
e 43 81
e 43 82
e 43 84
e 43 86
e 43 89
e 43 97
e 44 72
e 44 73
e 44 74
e 44 75
e 44 76
e 44 77
e 44 78
e 44 84
e 44 86
e 44 90
e 44 91
e 44 92
e 44 93
e 44 94
e 44 97
e 44 98
e 44 99
e 45 72
e 45 73
e 45 74
e 45 75
e 45 76
e 45 77
e 45 78
e 45 79
e 45 90
e 45 93
e 45 96
e 45 97
e 45 99
e 46 72
e 46 73
e 46 74
e 46 75
e 46 76
e 46 77
e 46 78
e 46 79
e 46 83
e 46 86
e 46 88
e 46 89
e 46 91
e 46 92
e 46 95
e 47 69
e 47 72
e 47 73
e 47 74
e 47 75
e 47 76
e 47 77
e 47 78
e 47 80
e 47 81
e 47 82
e 47 84
e 47 85
e 47 87
e 47 89
e 47 90
e 47 97
e 47 99
e 47 100
e 48 72
e 48 73
e 48 74
e 48 75
e 48 76
e 48 77
e 48 78
e 48 82
e 48 83
e 48 85
e 48 87
e 48 90
e 48 94
e 48 95
e 48 97
e 48 99
e 49 72
e 49 73
e 49 74
e 49 75
e 49 76
e 49 77
e 49 78
e 49 79
e 49 80
e 49 84
e 49 86
e 49 89
e 49 90
e 49 91
e 49 96
e 50 72
e 50 73
e 50 74
e 50 75
e 50 76
e 50 77
e 50 78
e 50 79
e 50 81
e 50 83
e 50 84
e 50 86
e 50 87
e 50 88
e 50 90
e 50 91
e 50 92
e 50 93
e 50 94
e 50 96
e 50 97
e 50 98
e 50 99
e 50 100
e 51 72
e 51 73
e 51 74
e 51 75
e 51 76
e 51 77
e 51 78
e 51 81
e 51 85
e 51 86
e 51 88
e 51 89
e 51 91
e 51 93
e 51 94
e 51 95
e 51 96
e 51 100
e 52 72
e 52 73
e 52 74
e 52 75
e 52 76
e 52 77
e 52 78
e 52 81
e 52 87
e 52 88
e 52 89
e 52 90
e 52 91
e 52 94
e 52 95
e 52 96
e 52 97
e 52 98
e 52 99
e 53 72
e 53 73
e 53 74
e 53 75
e 53 76
e 53 77
e 53 78
e 53 79
e 53 81
e 53 82
e 53 83
e 53 86
e 53 87
e 53 88
e 53 89
e 53 90
e 53 92
e 53 94
e 53 95
e 53 97
e 54 55
e 54 78
e 54 80
e 54 81
e 54 83
e 54 87
e 54 88
e 54 89
e 54 90
e 54 91
e 54 92
e 54 93
e 54 96
e 54 98
e 54 99
e 55 78
e 55 79
e 55 80
e 55 81
e 55 84
e 55 87
e 55 92
e 55 93
e 55 94
e 55 95
e 55 96
e 55 98
e 56 78
e 56 80
e 56 81
e 56 83
e 56 84
e 56 85
e 56 87
e 56 94
e 56 98
e 56 99
e 56 100
e 57 78
e 57 83
e 57 84
e 57 85
e 57 86
e 57 88
e 57 89
e 57 92
e 57 94
e 57 95
e 57 96
e 58 78
e 58 81
e 58 86
e 58 88
e 58 89
e 58 92
e 58 93
e 58 95
e 58 96
e 59 78
e 59 79
e 59 80
e 59 84
e 59 89
e 59 90
e 59 93
e 59 95
e 60 78
e 60 79
e 60 84
e 60 85
e 60 86
e 60 87
e 60 88
e 60 89
e 60 96
e 60 97
e 60 98
e 60 99
e 61 78
e 61 79
e 61 80
e 61 82
e 61 83
e 61 84
e 61 85
e 61 87
e 61 91
e 61 93
e 61 94
e 61 95
e 61 97
e 62 78
e 62 80
e 62 81
e 62 82
e 62 84
e 62 87
e 62 88
e 62 90
e 62 91
e 62 93
e 62 96
e 62 99
e 63 78
e 63 80
e 63 84
e 63 86
e 63 87
e 63 88
e 63 89
e 63 90
e 63 91
e 63 92
e 63 93
e 63 96
e 63 99
e 64 78
e 64 80
e 64 81
e 64 82
e 64 84
e 64 85
e 64 87
e 64 88
e 64 93
e 64 97
e 64 98
e 65 78
e 65 79
e 65 80
e 65 84
e 65 86
e 65 87
e 65 89
e 65 91
e 65 96
e 65 100
e 66 78
e 66 80
e 66 81
e 66 84
e 66 85
e 66 86
e 66 87
e 66 88
e 66 89
e 66 90
e 66 91
e 66 94
e 66 95
e 66 96
e 66 97
e 66 100
e 67 78
e 67 80
e 67 81
e 67 82
e 67 83
e 67 84
e 67 85
e 67 86
e 67 87
e 67 88
e 67 89
e 67 91
e 67 92
e 67 93
e 67 95
e 67 96
e 67 100
e 68 78
e 68 79
e 68 81
e 68 82
e 68 84
e 68 85
e 68 88
e 68 89
e 68 90
e 68 91
e 68 92
e 68 94
e 68 95
e 68 99
e 69 78
e 69 79
e 69 80
e 69 83
e 69 84
e 69 85
e 69 87
e 69 89
e 69 91
e 69 94
e 69 95
e 69 96
e 69 97
e 69 98
e 69 99
e 70 78
e 70 79
e 70 81
e 70 82
e 70 83
e 70 87
e 70 88
e 70 89
e 70 96
e 70 97
e 70 99
e 71 78
e 71 79
e 71 80
e 71 81
e 71 82
e 71 84
e 71 85
e 71 87
e 71 88
e 71 89
e 71 90
e 71 91
e 71 94
e 71 96
e 71 98
e 72 78
e 72 79
e 72 80
e 72 81
e 72 82
e 72 86
e 72 88
e 72 91
e 72 93
e 72 95
e 72 97
e 72 98
e 72 99
e 73 78
e 73 79
e 73 81
e 73 85
e 73 88
e 73 91
e 73 94
e 73 96
e 73 98
e 74 78
e 74 81
e 74 84
e 74 85
e 74 87
e 74 90
e 74 93
e 74 96
e 74 97
e 74 98
e 74 99
e 74 100
e 75 78
e 75 80
e 75 81
e 75 85
e 75 90
e 75 94
e 75 97
e 75 100
e 76 78
e 76 80
e 76 85
e 76 86
e 76 87
e 76 93
e 76 95
e 76 100
e 77 78
e 77 79
e 77 80
e 77 82
e 77 83
e 77 84
e 77 85
e 77 86
e 77 88
e 77 94
e 77 95
e 77 100
e 78 80
e 78 82
e 78 83
e 78 84
e 78 86
e 78 87
e 78 92
e 78 93
e 78 95
e 78 97
e 78 100
e 79 83
e 79 84
e 79 85
e 79 86
e 79 87
e 79 88
e 79 89
e 79 90
e 79 91
e 79 92
e 79 93
e 79 94
e 79 95
e 79 96
e 79 97
e 79 98
e 79 99
e 79 100
e 80 83
e 80 84
e 80 85
e 80 86
e 80 87
e 80 88
e 80 89
e 80 90
e 80 91
e 80 92
e 80 93
e 80 94
e 80 95
e 80 96
e 80 97
e 80 98
e 80 99
e 80 100
e 81 83
e 81 84
e 81 85
e 81 86
e 81 87
e 81 88
e 81 89
e 81 90
e 81 91
e 81 92
e 81 93
e 81 94
e 81 95
e 81 96
e 81 97
e 81 98
e 81 99
e 81 100
e 82 83
e 82 84
e 82 85
e 82 86
e 82 87
e 82 88
e 82 89
e 82 90
e 82 91
e 82 92
e 82 93
e 82 94
e 82 95
e 82 96
e 82 97
e 82 98
e 82 99
e 83 97
e 83 98
e 83 99
e 83 100
e 84 97
e 84 98
e 84 99
e 85 96
e 86 94
e 89 91
e 90 100
e 91 96
